c 
c MolecularSimulation 0.9.3
c Simulation written: Feb  3 2012 -- 09:27:43
c Test: Lipton
c Input: ./data/example/example_N5_M4.cnf
c 
s SATISFIABLE
v -1 -2 -3 -4 5 0
c algorithmType:  Lipton
c algorithmTime:  0
c solutionMemory: 27
c mixCount:       23
c extractCount:   12
c appendCount:    10
c splitCount:     5
c spliceCount:    0
c purifyCount:    5
c numVar:         5
c numClause:      4
c 
